objective value:                                   -3
t_n_11                                              1 	(obj:-1)
t_n_312                                             1 	(obj:-1)
t_n_1077                                            1 	(obj:-1)
